
Gurobi 9.5.2 (win64, Python) logging started Wed May  3 12:21:29 2023

Set parameter Username
Set parameter LogFile to value "gurobi.log"
Academic license - for non-commercial use only - expires 2023-11-02
